20180606 150 0 0 0
20170614 150 0 0 0
20160603 200 5000 0 0
20150603 100 0 0 0
20140616 200 5000 0 0
20130529 200 5000 0 0
20120522 200 5000 0 0
20110331 200 5000 0 0
20100428 400 5000 0 0
20090422 200 5000 0 0
20080508 200 5000 0 0
20070517 200 0 0 0
